pRobustCbss/Mtsp.tsp
NAME : mtspf
COMMENT : file for mtspf test
TYPE : ATSP
DIMENSION : 10
EDGE_WEIGHT_TYPE : EXPLICIT
EDGE_WEIGHT_FORMAT : FULL_MATRIX
EDGE_WEIGHT_SECTION
0 0 0 0 0 10 12 14 16 18 
0 0 0 0 0 12 10 12 14 16 
0 0 0 0 0 14 12 10 12 14 
0 0 0 0 0 16 14 12 10 12 
0 0 0 0 0 18 16 14 12 10 
0 0 0 0 0 0 2 4 6 8 
0 0 0 0 0 2 0 2 4 6 
0 0 0 0 0 4 2 0 2 4 
0 0 0 0 0 6 4 2 0 2 
0 0 0 0 0 8 6 4 2 0 
