pRobustCbss/Mtsp.tour
NAME : mtspf.18.tour
COMMENT : Length = 18
COMMENT : Found by LKH-3 [Keld Helsgaun] Fri Nov  8 16:27:42 2024
TYPE : TOUR
DIMENSION : 10
TOUR_SECTION
1
3
5
10
9
8
7
6
4
2
-1
EOF
